QBPP_HJ+_30_025_20_1
30 74 1815
27 31 38 42 31 3 28 27 7 50 28 49 14 50 44 37 1 24 50 26 32 1 22 7 3 16 18 4 1 26
   0   0   5   0   0  76   0   0   0   0   5  45   0   0   0   0  28   0   0  14   0   0   0  50  80   9   0  29  54   0
   0   0   0  13   0   0   0   0   0  75   0   0   0   0   0  73   0   0  74   0   0   0   0   0   0   0   0   0   0   0
   5   0   0  69   0   0   0   0   0   0  33   0   0   0  43   0   0   0  35   0   0  59  62   0  57   0   0   0   0  74
   0  13  69   0  21   0   0   0   0  77   0   0  22   0   0   0   0   0   0  93  48   8   2   0   0   0   0  60   0   0
   0   0   0  21   0  29   0  38  87   0   0   0   0   0   0   0   0   0   0   0  29   0  71   0   0   0   0   0   0   0
  76   0   0   0  29   0   0  30   0   0   0   0   0   0   0   0   0   0   0   0   0   0   0   0   0   0   0  52   0   0
   0   0   0   0   0   0   0   0   0   0  53   0   0   0   0   0   0   0   0  67   0   0   0   0   0  26  64   0   0  84
   0   0   0   0  38  30   0   0   0   0  41   0   0   0  42   0   0   0  88   0   0   0   0   0   0  70   0   0  54   0
   0   0   0   0  87   0   0   0   0   0   0   0  44  28   0   0   0  20   0   0   0   0  86   0   0  94  71   0  98  59
   0  75   0  77   0   0   0   0   0   0   0   0   0   0   0   0   0   0  96   0  74   0   0   0  24  67   0   0   0  74
   5   0  33   0   0   0  53  41   0   0   0   0  70   0   0   5  94  14   0   0   0   0  27   0   0   0   0   0   0  35
  45   0   0   0   0   0   0   0   0   0   0   0   0   0   0   0   0   0   0   0   0   0   0   0  49   0  86   0   0   0
   0   0   0  22   0   0   0   0  44   0  70   0   0   0  19   0   0  69   0   0   0   0   0   0   0   0   0   0   0   0
   0   0   0   0   0   0   0   0  28   0   0   0   0   0   0   0   0   0   0  66   0   0   0   0   0   0   0   0   0   0
   0   0  43   0   0   0   0  42   0   0   0   0  19   0   0   0   0   0   0   0   0   0   0   0   0   0   0   0   0   0
   0  73   0   0   0   0   0   0   0   0   5   0   0   0   0   0   0   0  57   0   0  47   0   0   0  99   0   0  72   0
  28   0   0   0   0   0   0   0   0   0  94   0   0   0   0   0   0   0  76   0   0  17   0   0  27   0   6   0   0   0
   0   0   0   0   0   0   0   0  20   0  14   0  69   0   0   0   0   0  73  19   0   0   0  96   0  26  82   0   0   0
   0  74  35   0   0   0   0  88   0  96   0   0   0   0   0  57  76  73   0  36   0  96   0  97   0   0  87  84   0  55
  14   0   0  93   0   0  67   0   0   0   0   0   0  66   0   0   0  19  36   0   0   0   0   0   0   0   0   0   0   0
   0   0   0  48  29   0   0   0   0  74   0   0   0   0   0   0   0   0   0   0   0   5   0   0  96   0   0   0   0   0
   0   0  59   8   0   0   0   0   0   0   0   0   0   0   0  47  17   0  96   0   5   0   0  42   0   0  25   0   0   0
   0   0  62   2  71   0   0   0  86   0  27   0   0   0   0   0   0   0   0   0   0   0   0   0   0  50   0   0   0   0
  50   0   0   0   0   0   0   0   0   0   0   0   0   0   0   0   0  96  97   0   0  42   0   0   0  66  35   0  33   0
  80   0  57   0   0   0   0   0   0  24   0  49   0   0   0   0  27   0   0   0  96   0   0   0   0  58   0   0   0   0
   9   0   0   0   0   0  26  70  94  67   0   0   0   0   0  99   0  26   0   0   0   0  50  66  58   0   0   0  77  59
   0   0   0   0   0   0  64   0  71   0   0  86   0   0   0   0   6  82  87   0   0  25   0  35   0   0   0  58   0   0
  29   0   0  60   0  52   0   0   0   0   0   0   0   0   0   0   0   0  84   0   0   0   0   0   0   0  58   0   0   0
  54   0   0   0   0   0   0  54  98   0   0   0   0   0   0  72   0   0   0   0   0   0   0  33   0  77   0   0   0   0
   0   0  74   0   0   0  84   0  59  74  35   0   0   0   0   0   0   0  55   0   0   0   0   0   0  59   0   0   0   0
